{'code': [18, 1, 18, 15, 13, 5, 6, 6, 3, 1, 12, 6, 4, 11, 9, 2, 13, 10, 14, 1, 11, 13, 7, 6, 8, 19, 
1, 14, 7, 7, 1, 5, 18, 0, 18, 2, 9, 13, 12, 6, 12, 6, 15, 7, 16, 10, 5, 3, 13, 11, 17, 10, 9, 15, 15
, 18, 1, 19, 1, 7, 7, 17, 9, 5, 0, 13, 6, 16, 16, 0, 7, 8, 15, 9, 1, 6, 7, 19, 5, 19, 14, 15, 16, 15
, 8, 11, 16, 2, 4, 2, 9, 17, 15, 4, 4, 0, 16, 14, 6, 11, 12, 2, 4, 9, 10, 18, 13, 10, 19, 6, 3, 16, 
3, 6, 16, 8, 15, 4, 19, 5, 4, 2, 8, 14, 16, 2, 5, 6, 14, 0, 4, 1, 14, 12, 2, 11, 16, 10, 3, 15, 5, 1
, 2, 13, 15, 19, 10, 16, 13, 17, 1, 14, 11, 7, 7, 19, 15, 19, 7, 4, 11, 14, 10, 12, 7, 2, 5, 3, 8, 4
, 18, 3, 12, 17, 8, 18, 0, 3, 2, 6, 8, 18, 16, 8, 1, 12, 4, 18, 16, 4, 8, 5, 18, 14, 0, 12, 1, 17, 1
4, 9, 12, 12, 10, 17, 19, 10, 15, 19, 11, 9, 0, 14, 6, 0, 3, 17, 0, 9, 11, 0, 0, 17, 9, 13, 11, 4, 9
, 3, 17, 3, 19, 18, 18, 17, 7, 8, 5, 4, 15, 19], 'route': None, 'mac': [[0, 7, 7, 0, 9, 8, 6, 0, 8, 
3, 1, 3], [7, 4, 1, 4, 2, 5, 6, 0, 6, 0, 2, 3, 4], [6, 4, 9, 0, 6, 3, 0, 0, 4, 1, 2], [0, 0, 8, 7, 3
, 7, 3, 4, 2, 2, 0], [7, 3, 4, 4, 3, 1, 1, 7, 4, 9, 8, 4, 9, 0], [1, 1, 0, 2, 4, 5, 7, 7, 1, 6, 8], 
[7, 7, 7, 3, 0, 1, 1, 4, 3, 0, 1, 6, 2, 9], [0, 9, 4, 6, 8, 1, 6, 1, 5, 5, 0, 2, 4], [7, 1, 0, 3, 4,
 6, 5, 8, 8, 0, 7], [3, 3, 2, 4, 8, 3, 4, 2, 1, 1, 0, 0], [8, 4, 5, 3, 0, 4, 6, 2, 0, 3], [9, 8, 3, 
8, 6, 2, 1, 7, 6, 4, 9], [1, 2, 8, 4, 1, 2, 0, 7, 0, 0, 6], [4, 0, 9, 1, 6, 0, 3, 2, 6, 2], [0, 3, 9
, 5, 4, 8, 1, 9, 3, 1, 1, 6], [7, 8, 2, 8, 7, 6, 6, 1, 0, 1, 3, 4, 0, 9], [5, 8, 6, 7, 4, 4, 0, 6, 1
, 1, 2, 2, 0], [5, 8, 3, 4, 2, 4, 8, 1, 9, 7, 5], [2, 1, 6, 9, 1, 0, 3, 9, 9, 4, 1, 6, 4], [6, 6, 6,
 2, 4, 0, 4, 0, 7, 8, 5, 2, 1]], 'wok': None}
